(set-info :smt-lib-version 2.6)
(set-logic QF_FP)
(set-info :source |
Generated by: Anastasiia Izycheva, Eva Darulova
Generated on: 2020-09-11
Generator: Pine (using Z3 Python API)
Application: Check inductiveness of a loop invariant
Target solver: CVC4

These benchmarks were generated while developing the tool Pine [1], which uses
CVC4/Z3 to check inductiveness of invariants. The work is described in [2].

[1] https://github.com/izycheva/pine
[2] A.Izycheva, E.Darulova, H.Seidl, SAS'20, "Counterexample- and Simulation-Guided Floating-Point Loop Invariant Synthesis"

 Loop:
   x1' := x1 + 0.01 * x2
   x2' := -0.01 * x1 + 0.99 * x2

 Input ranges:
   x1 in [0.0,1.0]
   x2 in [0.0,1.0]

 Invariant:
   -1.0*x1 + -0.48*x2 + 0.9*x1^2 + 0.38*x1*x2 + 0.85*x2^2 <= 0.76
 and
   x1 in [-0.5,1.5]
   x2 in [-1.0,1.0]

 Query: Loop and Invariant and not Invariant'
|)
(set-info :license "https://creativecommons.org/licenses/by/4.0/")
(set-info :category "industrial")
(set-info :status unknown)
(declare-fun x1!FP () (_ FloatingPoint 8 24))
(declare-fun x2!FP () (_ FloatingPoint 8 24))
(declare-fun x2FP () (_ FloatingPoint 8 24))
(declare-fun x1FP () (_ FloatingPoint 8 24))
(assert
 (let ((?x203 (fp.mul roundNearestTiesToEven (fp.mul roundNearestTiesToEven (fp #b0 #x7e #b10110011001100110011001) x2!FP) x2!FP)))
 (let ((?x192 (fp.add roundNearestTiesToEven ?x203 (fp.mul roundNearestTiesToEven (fp #b1 #x7f #b00000000000000000000000) x1!FP))))
 (let ((?x245 (fp.mul roundNearestTiesToEven (fp.mul roundNearestTiesToEven (fp #b0 #x7d #b10000101000111101011100) x1!FP) x2!FP)))
 (let ((?x15 (fp.mul roundNearestTiesToEven (fp.mul roundNearestTiesToEven (fp #b0 #x7e #b11001100110011001100110) x1!FP) x1!FP)))
 (let ((?x65 (fp.add roundNearestTiesToEven ?x15 (fp.add roundNearestTiesToEven ?x245 ?x192))))
 (let ((?x21 (fp.add roundNearestTiesToEven (fp.mul roundNearestTiesToEven (fp #b1 #x7d #b11101011100001010001111) x2!FP) ?x65)))
 (let (($x160 (fp.leq ?x21 (fp #b0 #x7e #b10000101000111101011100))))
 (let (($x132 (fp.leq x2!FP (fp #b0 #x7f #b00000000000000000000000))))
 (let (($x264 (fp.leq (fp #b1 #x7f #b00000000000000000000000) x2!FP)))
 (let (($x161 (fp.leq x1!FP (fp #b0 #x7f #b10000000000000000000000))))
 (let (($x189 (fp.leq (fp #b1 #x7e #b00000000000000000000000) x1!FP)))
 (let ((?x58 (fp.mul roundNearestTiesToEven (fp #b0 #x7e #b11111010111000010100011) x2FP)))
 (let ((?x133 (fp.add roundNearestTiesToEven (fp.mul roundNearestTiesToEven (fp.neg (fp #b0 #x78 #b01000111101011100001010)) x1FP) ?x58)))
 (let ((?x109 (fp.add roundNearestTiesToEven x1FP (fp.mul roundNearestTiesToEven (fp #b0 #x78 #b01000111101011100001010) x2FP))))
 (let (($x111 (fp.eq x1!FP ?x109)))
 (let ((?x219 (fp.mul roundNearestTiesToEven (fp.mul roundNearestTiesToEven (fp #b0 #x7e #b10110011001100110011001) x2FP) x2FP)))
 (let ((?x199 (fp.add roundNearestTiesToEven ?x219 (fp.mul roundNearestTiesToEven (fp #b1 #x7f #b00000000000000000000000) x1FP))))
 (let ((?x166 (fp.mul roundNearestTiesToEven (fp.mul roundNearestTiesToEven (fp #b0 #x7d #b10000101000111101011100) x1FP) x2FP)))
 (let ((?x211 (fp.mul roundNearestTiesToEven (fp.mul roundNearestTiesToEven (fp #b0 #x7e #b11001100110011001100110) x1FP) x1FP)))
 (let ((?x194 (fp.add roundNearestTiesToEven ?x211 (fp.add roundNearestTiesToEven ?x166 ?x199))))
 (let ((?x115 (fp.add roundNearestTiesToEven (fp.mul roundNearestTiesToEven (fp #b1 #x7d #b11101011100001010001111) x2FP) ?x194)))
 (let (($x108 (fp.leq ?x115 (fp #b0 #x7e #b10000101000111101011100))))
 (let (($x17 (fp.leq x2FP (fp #b0 #x7f #b00000000000000000000000))))
 (let (($x93 (fp.leq (fp #b1 #x7f #b00000000000000000000000) x2FP)))
 (let (($x106 (fp.leq x1FP (fp #b0 #x7f #b10000000000000000000000))))
 (let (($x97 (fp.leq (fp #b1 #x7e #b00000000000000000000000) x1FP)))
 (and (and (and $x97 $x106 $x93 $x17) $x108 ) (and $x111 (fp.eq x2!FP ?x133)) (or (not $x189) (not $x161) (not $x264) (not $x132) (not $x160))))))))))))))))))))))))))))))
(check-sat)
(exit)
